(set-info :smt-lib-version 2.6)
(set-logic QF_LIA)
(set-info :category "industrial")
(set-info :status sat)
(declare-fun x0 () Int)
(declare-fun x1 () Int)
(declare-fun x10 () Int)
(declare-fun x11 () Int)
(declare-fun x12 () Int)
(declare-fun x13 () Int)
(declare-fun x14 () Int)
(declare-fun x15 () Int)
(declare-fun x16 () Int)
(declare-fun x17 () Int)
(declare-fun x18 () Int)
(declare-fun x19 () Int)
(declare-fun x2 () Int)
(declare-fun x20 () Int)
(declare-fun x21 () Int)
(declare-fun x22 () Int)
(declare-fun x23 () Int)
(declare-fun x24 () Int)
(declare-fun x25 () Int)
(declare-fun x26 () Int)
(declare-fun x27 () Int)
(declare-fun x28 () Int)
(declare-fun x29 () Int)
(declare-fun x3 () Int)
(declare-fun x30 () Int)
(declare-fun x31 () Int)
(declare-fun x32 () Int)
(declare-fun x33 () Int)
(declare-fun x34 () Int)
(declare-fun x35 () Int)
(declare-fun x36 () Int)
(declare-fun x37 () Int)
(declare-fun x38 () Int)
(declare-fun x39 () Int)
(declare-fun x4 () Int)
(declare-fun x40 () Int)
(declare-fun x41 () Int)
(declare-fun x42 () Int)
(declare-fun x43 () Int)
(declare-fun x44 () Int)
(declare-fun x5 () Int)
(declare-fun x6 () Int)
(declare-fun x7 () Int)
(declare-fun x8 () Int)
(declare-fun x9 () Int)
(assert (let ((?v_62 (* 1 x1)) (?v_27 (* 1 x11)) (?v_28 (* 1 x12)) (?v_0 (* 1 x13)) (?v_98 (* 0 x14)) (?v_8 (* 0 x18)) (?v_45 (* 1 x19)) (?v_21 (* 0 x29)) (?v_37 (* 0 x3)) (?v_56 (* 0 x34)) (?v_23 (* 0 x35)) (?v_1 (* 0 x37)) (?v_14 (* 0 x4)) (?v_10 (* 1 x24)) (?v_11 (* 1 x26)) (?v_72 (* 1 x30)) (?v_24 (* 0 x36)) (?v_2 (* 1 x39)) (?v_40 (* 1 x5)) (?v_3 (* 0 x8)) (?v_69 (* 1 x9))) (let ((?v_80 (+ ?v_3 ?v_69)) (?v_74 (* 1 x0)) (?v_97 (* 0 x11)) (?v_7 (* 1 x17)) (?v_77 (* 1 x2)) (?v_66 (* 1 x22)) (?v_9 (* 0 x23)) (?v_48 (* 0 x26)) (?v_20 (* 0 x28)) (?v_110 (* 2 x31)) (?v_13 (* 0 x33)) (?v_15 (* 0 x42)) (?v_25 (* 0 x43)) (?v_68 (* 1 x38)) (?v_16 (* 0 x44)) (?v_39 (* 0 x6)) (?v_41 (* 1 x7)) (?v_38 (* 1 x36)) (?v_92 (* 0 x1)) (?v_70 (* 0 x13)) (?v_29 (* 0 x15)) (?v_44 (* 0 x16)) (?v_46 (* 0 x20)) (?v_35 (* 0 x22)) (?v_36 (* 1 x27)) (?v_22 (* 0 x30)) (?v_51 (* 0 x31)) (?v_124 (* 1 x34)) (?v_53 (* 1 x37)) (?v_91 (* 1 x41)) (?v_26 (* 0 x0)) (?v_42 (* 0 x12)) (?v_30 (* 0 x17)) (?v_32 (* 1 x21)) (?v_83 (* 0 x25)) (?v_60 (* 0 x32)) (?v_73 (* 0 x40)) (?v_85 (* 1 x6)) (?v_90 (* 0 x7)) (?v_102 (* 0 x9))) (let ((?v_61 (+ ?v_3 ?v_102)) (?v_64 (* 0 x19)) (?v_78 (* 0 x24)) (?v_89 (* 1 x29)) (?v_52 (* 0 x39)) (?v_54 (* 0 x41)) (?v_84 (* 1 x42)) (?v_79 (* 1 x44)) (?v_58 (* 1 x18)) (?v_57 (* 0 x38)) (?v_88 (* 0 x2)) (?v_65 (* 1 x16)) (?v_136 (* 1 x4)) (?v_131 (* 1 x40))) (let ((?v_112 (+ ?v_54 ?v_61)) (?v_81 (* 1 x14)) (?v_106 (* 1 x28)) (?v_118 (* 1 x31)) (?v_99 (* 0 x21)) (?v_100 (* 0 x27)) (?v_111 (* 1 x33)) (?v_105 (* 0 x5)) (?v_96 (* 0 x10)) (?v_101 (* 1 x43)) (?v_117 (* 1 x20)) (?v_121 (* 1 x23)) (?v_122 (* 1 x3)) (?v_134 (+ ?v_79 ?v_41)) (?v_132 (* 1 x8)) (?v_133 (* 1 x10)) (?v_135 (* 1 x25)) (?v_125 (* (- 1) x0)) (?v_113 (* (- 1) x17)) (?v_43 (* (- 1) x22)) (?v_75 (* (- 1) x23)) (?v_108 (* (- 1) x44)) (?v_126 (* (- 2) x32)) (?v_17 (* (- 1) x1)) (?v_4 (* (- 1) x10)) (?v_5 (* (- 1) x14)) (?v_18 (* (- 1) x15)) (?v_6 (* (- 1) x21)) (?v_19 (* (- 1) x24)) (?v_12 (* (- 1) x29)) (?v_50 (* (- 1) x30)) (?v_114 (* (- 1) x35)) (?v_34 (* (- 1) x40)) (?v_49 (* (- 1) x28)) (?v_76 (* (- 1) x3)) (?v_104 (* (- 1) x38)) (?v_67 (* (- 1) x36)) (?v_31 (* (- 1) x20)) (?v_55 (* (- 1) x26)) (?v_47 (* (- 1) x27)) (?v_33 (* (- 1) x31)) (?v_103 (* (- 1) x33)) (?v_86 (* (- 1) x42)) (?v_63 (* (- 1) x2)) (?v_59 (* (- 1) x25)) (?v_87 (* (- 1) x5)) (?v_109 (* (- 1) x7)) (?v_123 (* (- 1) x11)) (?v_127 (* (- 2) x35)) (?v_116 (* (- 1) x4)) (?v_71 (* (- 1) x43)) (?v_95 (* (- 1) x8)) (?v_128 (* (- 2) x7)) (?v_107 (* (- 1) x16)) (?v_93 (* (- 1) x18)) (?v_119 (* (- 1) x12)) (?v_94 (* (- 1) x34)) (?v_115 (* (- 1) x39)) (?v_82 (* (- 1) x41)) (?v_129 (* (- 1) x32)) (?v_130 (* (- 1) x9)) (?v_120 (* (- 1) x19))) (and (<= (+ ?v_125 (+ ?v_113 (+ ?v_62 (+ ?v_27 (+ ?v_28 (+ ?v_0 (+ ?v_98 (+ ?v_8 (+ ?v_45 (+ ?v_43 (+ ?v_75 (+ ?v_21 (+ ?v_37 (+ ?v_56 (+ ?v_23 (+ ?v_1 (+ ?v_14 (+ ?v_108 (+ ?v_10 (+ ?v_11 (+ ?v_72 (+ ?v_126 (+ ?v_24 (+ ?v_2 (+ ?v_40 ?v_80))))))))))))))))))))))))) 0) (<= (+ ?v_74 (+ ?v_17 (+ ?v_4 (+ ?v_97 (+ ?v_0 (+ ?v_5 (+ ?v_18 (+ ?v_7 (+ ?v_6 (+ ?v_77 (+ ?v_19 (+ ?v_12 (+ ?v_50 (+ ?v_114 (+ ?v_34 (+ ?v_66 (+ ?v_9 (+ ?v_48 (+ ?v_20 (+ ?v_110 (+ ?v_13 (+ ?v_1 (+ ?v_2 (+ ?v_15 (+ ?v_25 (+ ?v_68 (+ ?v_16 (+ ?v_39 (+ ?v_41 (+ ?v_3 ?v_38)))))))))))))))))))))))))))))) (- 1)) (<= (+ ?v_92 (+ ?v_4 (+ ?v_70 (+ ?v_5 (+ ?v_6 (+ ?v_29 (+ ?v_44 (+ ?v_7 (+ ?v_8 (+ ?v_46 (+ ?v_35 (+ ?v_9 (+ ?v_10 (+ (* (- 2) x25) (+ ?v_11 (+ ?v_36 (+ ?v_49 (+ ?v_12 (+ ?v_76 (+ ?v_104 (+ ?v_22 (+ ?v_51 (+ ?v_13 (+ ?v_124 (+ ?v_67 (+ ?v_2 (+ ?v_14 (+ ?v_15 (+ ?v_53 (+ ?v_16 ?v_91)))))))))))))))))))))))))))))) 0) (<= (+ ?v_26 (+ ?v_17 (+ ?v_42 (+ ?v_18 (+ ?v_30 (+ ?v_31 (+ ?v_32 (+ ?v_19 (+ ?v_55 (+ ?v_47 (+ ?v_33 (+ ?v_103 (+ ?v_86 (+ ?v_9 (+ ?v_83 (+ ?v_20 (+ ?v_21 (+ ?v_22 (+ ?v_60 (+ ?v_23 (+ ?v_24 (+ ?v_14 (+ ?v_73 (+ ?v_25 (+ ?v_85 (+ (* 3 x5) (+ ?v_90 ?v_61))))))))))))))))))))))))))) 1) (<= (+ ?v_26 (+ ?v_17 (+ ?v_27 (+ ?v_28 (+ ?v_5 (+ ?v_29 (+ ?v_30 (+ ?v_8 (+ ?v_63 (+ ?v_64 (+ (* 3 x16) (+ ?v_31 (+ ?v_32 (+ ?v_33 (+ ?v_34 (+ ?v_35 (+ ?v_78 (+ ?v_36 (+ ?v_89 (+ ?v_37 (+ ?v_13 (+ ?v_52 (+ ?v_38 (+ ?v_54 (+ ?v_39 (+ ?v_84 (+ ?v_79 (+ ?v_40 (+ ?v_41 ?v_3))))))))))))))))))))))))))))) 1) (<= (+ ?v_26 (+ ?v_42 (+ ?v_29 (+ ?v_43 (+ ?v_19 (+ ?v_44 (+ ?v_58 (+ ?v_45 (+ ?v_46 (+ ?v_32 (+ ?v_9 (+ ?v_59 (+ ?v_47 (+ ?v_48 (+ ?v_49 (+ ?v_12 (+ ?v_50 (+ ?v_87 (+ ?v_51 (+ (* 1 x35) (+ ?v_57 (+ ?v_52 (+ ?v_39 (+ ?v_109 (+ ?v_38 (+ ?v_53 ?v_54)))))))))))))))))))))))))) 1) (<= (+ (* (- 2) x12) (+ ?v_123 (+ ?v_0 (+ ?v_30 (+ (* (- 2) x3) (+ ?v_127 (+ ?v_18 (+ (* 2 x1) (+ ?v_88 (+ ?v_55 (+ ?v_9 (+ ?v_21 (+ ?v_22 (+ ?v_56 (+ ?v_1 (+ ?v_57 (+ ?v_15 (+ ?v_65 (+ ?v_58 (+ ?v_45 (+ ?v_59 (+ ?v_36 (+ ?v_60 (+ ?v_2 (+ ?v_136 (+ ?v_131 ?v_112)))))))))))))))))))))))))) (- 1)) (<= (+ ?v_26 (+ ?v_30 (+ ?v_62 (+ ?v_63 (+ ?v_81 (+ ?v_64 (+ ?v_9 (+ ?v_65 (+ ?v_32 (+ ?v_66 (+ ?v_59 (+ ?v_47 (+ ?v_22 (+ ?v_13 (+ ?v_56 (+ ?v_11 (+ (* 3 x35) (+ ?v_67 (+ ?v_116 (+ ?v_71 (+ ?v_1 (+ ?v_15 (+ ?v_16 (+ ?v_95 (+ ?v_106 (+ ?v_118 (+ ?v_68 (+ ?v_54 ?v_69)))))))))))))))))))))))))))) 0) (<= (+ ?v_42 (+ ?v_70 (+ ?v_128 (+ ?v_29 (+ ?v_107 (+ ?v_93 (+ ?v_99 (+ ?v_100 (+ ?v_45 (+ ?v_43 (+ ?v_59 (+ ?v_55 (+ ?v_49 (+ ?v_71 (+ ?v_37 (+ ?v_51 (+ ?v_72 (+ ?v_60 (+ ?v_111 (+ ?v_24 (+ ?v_52 (+ ?v_14 (+ ?v_73 (+ ?v_53 (+ ?v_16 (+ ?v_105 ?v_3)))))))))))))))))))))))))) 1) (<= (+ ?v_74 (+ ?v_17 (+ ?v_119 (+ (* (- 1) x13) (+ (* (- 3) x26) (+ ?v_75 (+ ?v_76 (+ ?v_94 (+ ?v_115 (+ ?v_82 (+ ?v_96 (+ (* 2 x11) (+ ?v_44 (+ ?v_45 (+ ?v_77 (+ ?v_46 (+ ?v_35 (+ ?v_78 (+ ?v_60 (+ ?v_23 (+ ?v_24 (+ ?v_1 (+ ?v_68 (+ ?v_101 (+ ?v_79 ?v_80))))))))))))))))))))))))) 0) (<= (+ ?v_70 (+ ?v_18 (+ ?v_12 (+ ?v_30 (+ ?v_6 (+ ?v_62 (+ ?v_27 (+ ?v_28 (+ ?v_81 (+ ?v_44 (+ ?v_64 (+ ?v_77 (+ ?v_78 (+ ?v_48 (+ ?v_37 (+ ?v_22 (+ ?v_129 (+ ?v_23 (+ ?v_53 (+ ?v_57 (+ ?v_52 (+ ?v_14 (+ ?v_117 (+ ?v_82 (+ ?v_83 (+ ?v_84 (+ ?v_85 ?v_61))))))))))))))))))))))))))) 0) (<= (+ ?v_17 (+ ?v_27 (+ ?v_28 (+ (* 2 x13) (+ ?v_76 (+ ?v_67 (+ ?v_86 (+ ?v_87 (+ ?v_44 (+ ?v_7 (+ ?v_64 (+ ?v_88 (+ ?v_32 (+ ?v_78 (+ ?v_89 (+ (* 2 x27) (+ ?v_51 (+ ?v_13 (+ ?v_56 (+ ?v_1 (+ ?v_73 (+ ?v_39 (+ (* 2 x38) (+ ?v_90 (+ ?v_79 (+ ?v_3 (+ ?v_130 ?v_91))))))))))))))))))))))))))) (- 1)) (<= (+ (* (- 2) x33) (+ ?v_92 (+ ?v_93 (+ ?v_94 (+ ?v_87 (+ ?v_95 (+ ?v_96 (+ ?v_97 (+ ?v_70 (+ ?v_98 (+ ?v_29 (+ ?v_44 (+ ?v_88 (+ ?v_46 (+ ?v_99 (+ ?v_66 (+ ?v_48 (+ ?v_100 (+ ?v_23 (+ ?v_53 (+ ?v_57 (+ ?v_84 (+ ?v_101 (+ ?v_16 (+ (* 2 x23) (+ ?v_20 (+ ?v_60 ?v_102))))))))))))))))))))))))))) 0) (<= (+ (* (- 2) x30) (+ ?v_63 (+ ?v_31 (+ ?v_103 (+ ?v_104 (+ (* (- 1) x6) (+ ?v_96 (+ ?v_70 (+ ?v_98 (+ ?v_29 (+ ?v_44 (+ ?v_30 (+ ?v_32 (+ ?v_78 (+ ?v_66 (+ ?v_83 (+ ?v_51 (+ ?v_23 (+ ?v_52 (+ ?v_73 (+ ?v_25 (+ ?v_105 (+ ?v_11 (+ ?v_3 (+ ?v_106 (+ (* 2 x32) ?v_54)))))))))))))))))))))))))) (- 1)) (<= (+ ?v_26 (+ ?v_62 (+ ?v_107 (+ ?v_63 (+ ?v_6 (+ ?v_43 (+ ?v_108 (+ ?v_109 (+ ?v_96 (+ ?v_27 (+ ?v_98 (+ ?v_29 (+ ?v_7 (+ ?v_45 (+ ?v_46 (+ ?v_78 (+ ?v_121 (+ ?v_83 (+ ?v_23 (+ ?v_57 (+ ?v_14 (+ ?v_15 (+ ?v_122 (+ ?v_110 (+ ?v_111 (+ ?v_53 (+ ?v_40 (+ ?v_85 (+ (* 2 x34) ?v_112))))))))))))))))))))))))))))) 1) (<= (+ ?v_74 (+ ?v_113 (+ ?v_19 (+ ?v_114 (+ ?v_115 (+ ?v_116 (+ ?v_96 (+ ?v_97 (+ ?v_98 (+ ?v_29 (+ ?v_99 (+ (* 2 x18) (+ ?v_48 (+ ?v_65 (+ ?v_20 (+ ?v_13 (+ ?v_24 (+ ?v_57 (+ ?v_25 (+ ?v_39 (+ ?v_102 (+ ?v_117 (+ ?v_83 (+ ?v_118 (+ ?v_53 (+ ?v_84 ?v_134)))))))))))))))))))))))))) 0) (<= (+ ?v_119 (+ ?v_92 (+ ?v_107 (+ ?v_113 (+ ?v_120 (+ ?v_63 (+ ?v_31 (+ ?v_43 (+ ?v_103 (+ ?v_67 (+ ?v_86 (+ ?v_109 (+ ?v_96 (+ ?v_27 (+ ?v_0 (+ ?v_98 (+ ?v_58 (+ ?v_78 (+ ?v_83 (+ ?v_89 (+ ?v_37 (+ (* 2 x26) (+ ?v_110 (+ ?v_60 (+ ?v_23 (+ ?v_52 (+ ?v_73 (+ ?v_68 ?v_102)))))))))))))))))))))))))))) 0) (<= (+ ?v_74 (+ ?v_62 (+ ?v_5 (+ ?v_120 (+ ?v_55 (+ ?v_49 (+ ?v_12 (+ ?v_114 (+ (* (- 1) x37) (+ ?v_34 (+ ?v_95 (+ ?v_96 (+ ?v_28 (+ ?v_44 (+ ?v_30 (+ ?v_8 (+ ?v_121 (+ ?v_10 (+ ?v_83 (+ ?v_36 (+ ?v_13 (+ ?v_56 (+ ?v_15 (+ ?v_39 (+ ?v_122 (+ ?v_72 (+ ?v_118 (+ ?v_68 (* 2 x41))))))))))))))))))))))))))))) (- 1)) (<= (+ ?v_123 (+ ?v_92 (+ (* (- 2) x19) (+ ?v_63 (+ ?v_6 (+ ?v_49 (+ ?v_50 (+ ?v_103 (+ ?v_108 (+ ?v_96 (+ ?v_98 (+ ?v_29 (+ ?v_44 (+ ?v_8 (+ ?v_35 (+ ?v_9 (+ ?v_10 (+ ?v_48 (+ ?v_100 (+ ?v_37 (+ ?v_51 (+ ?v_60 (+ ?v_57 (+ ?v_117 (+ ?v_124 (+ ?v_38 (+ ?v_54 (+ ?v_41 (+ ?v_132 (+ ?v_69 (* 2 x25))))))))))))))))))))))))))))))) 0) (<= (+ ?v_125 (+ ?v_123 (+ ?v_18 (+ ?v_126 (+ ?v_127 (+ ?v_128 (+ ?v_31 (+ ?v_96 (+ ?v_28 (+ ?v_70 (+ ?v_98 (+ ?v_30 (+ ?v_88 (+ ?v_99 (+ ?v_78 (+ ?v_48 (+ ?v_36 (+ ?v_89 (+ ?v_37 (+ ?v_24 (+ ?v_1 (+ ?v_57 (+ ?v_52 (+ ?v_54 (+ ?v_15 (+ ?v_105 (+ ?v_39 ?v_61))))))))))))))))))))))))))) 0) (<= (+ ?v_42 (+ ?v_70 (+ ?v_27 (+ ?v_29 (+ ?v_88 (+ ?v_99 (+ ?v_100 (+ ?v_51 (+ ?v_56 (+ ?v_23 (+ ?v_81 (+ ?v_89 (+ ?v_111 (+ (* (- 2) x8) (+ ?v_129 (+ ?v_67 (+ ?v_130 (+ ?v_46 (+ ?v_35 (+ ?v_52 (+ ?v_14 (+ ?v_131 (+ ?v_54 (+ ?v_101 (+ (* 2 x5) (+ ?v_90 ?v_79)))))))))))))))))))))))))) (- 1)) (<= (+ ?v_74 (+ ?v_17 (+ ?v_42 (+ ?v_70 (+ ?v_5 (+ ?v_30 (+ ?v_8 (+ (* (- 2) x24) (+ ?v_65 (+ ?v_31 (+ ?v_9 (+ ?v_100 (+ ?v_11 (+ ?v_49 (+ ?v_94 (+ ?v_114 (+ ?v_51 (+ ?v_122 (+ ?v_67 (+ ?v_116 (+ ?v_1 (+ (* 1 x32) (+ ?v_2 (+ ?v_54 (+ ?v_25 (+ ?v_16 (+ ?v_105 (+ ?v_102 (+ ?v_133 (+ ?v_85 ?v_132)))))))))))))))))))))))))))))) 1) (<= (+ ?v_125 (+ (* (- 2) x1) (+ ?v_30 (+ ?v_27 (+ ?v_0 (+ ?v_29 (+ (* (- 2) x18) (+ ?v_47 (+ ?v_21 (+ ?v_33 (+ ?v_103 (+ ?v_94 (+ ?v_114 (+ ?v_104 (+ ?v_86 (+ ?v_98 (+ ?v_64 (+ ?v_22 (+ ?v_130 (+ ?v_60 (+ ?v_1 (+ ?v_52 (+ ?v_73 (+ ?v_54 (+ ?v_3 (+ ?v_133 (+ ?v_135 ?v_134))))))))))))))))))))))))))) 0) (<= (+ ?v_119 (+ ?v_74 (+ ?v_6 (+ ?v_94 (+ ?v_92 (+ ?v_97 (+ ?v_0 (+ ?v_30 (+ ?v_8 (+ ?v_51 (+ ?v_77 (+ ?v_55 (+ ?v_36 (+ (* (- 2) x36) (+ ?v_109 (+ ?v_65 (+ ?v_46 (+ ?v_9 (+ ?v_20 (+ ?v_60 (+ ?v_23 (+ ?v_1 (+ ?v_57 (+ ?v_133 (+ ?v_135 (+ ?v_136 (+ ?v_91 (+ ?v_101 (+ ?v_40 ?v_85))))))))))))))))))))))))))))) (- 1)) (<= (+ (* (- 2) x42) (+ ?v_92 (+ ?v_97 (+ ?v_42 (+ ?v_70 (+ ?v_98 (+ ?v_29 (+ (* 2 x17) (+ ?v_8 (+ ?v_100 (+ ?v_51 (+ ?v_122 (+ (* 2 x2) (+ ?v_35 (+ ?v_48 (+ ?v_20 (+ ?v_129 (+ ?v_94 (+ ?v_52 (+ ?v_14 (+ ?v_73 (+ ?v_108 (+ ?v_90 (+ ?v_3 (+ ?v_133 (+ ?v_135 (+ ?v_101 ?v_40))))))))))))))))))))))))))) 0)))))))
(check-sat)
(exit)
